HFSDDW
15	4	2
0	80	1	46
0	51	1	71
0	31	1	64
0	15	1	69
0	7	1	6
0	89	1	34
0	11	1	59
0	48	1	18
0	69	1	30
0	38	1	40
0	28	1	95
0	49	1	92
0	30	1	65
0	53	1	24
0	11	1	73
LBCmax: 403
RELDUE
-1	269	9	8
-1	266	1	9
-1	247	3	2
-1	496	5	2
-1	516	5	1
-1	361	8	9
-1	158	6	4
-1	490	6	1
-1	197	9	6
-1	191	3	7
-1	253	5	1
-1	486	2	6
-1	286	8	1
-1	404	8	1
-1	243	2	1
DDW
247	291
237	295
207	287
432	560
475	557
300	422
142	174
456	524
164	230
170	212
207	299
467	505
237	335
335	473
236	250
